N = 100;
F = 7;
MaxItemsPerDay = 20;
MaxDay = 50;
name = ["i1", "i2", "i3", "i4", "i5", "i6", "i7", "i8", "i9", "i10", "i11", "i12", "i13", "i14", "i15", "i16", "i17", "i18", "i19", "i20", "i21", "i22", "i23", "i24", "i25", "i26", "i27", "i28", "i29", "i30", "i31", "i32", "i33", "i34", "i35", "i36", "i37", "i38", "i39", "i40", "i41", "i42", "i43", "i44", "i45", "i46", "i47", "i48", "i49", "i50", "i51", "i52", "i53", "i54", "i55", "i56", "i57", "i58", "i59", "i60", "i61", "i62", "i63", "i64", "i65", "i66", "i67", "i68", "i69", "i70", "i71", "i72", "i73", "i74", "i75", "i76", "i77", "i78", "i79", "i80", "i81", "i82", "i83", "i84", "i85", "i86", "i87", "i88", "i89", "i90", "i91", "i92", "i93", "i94", "i95", "i96", "i97", "i98", "i99", "i100"];
kind = [3, 5, 7, 3, 1, 3, 3, 7, 2, 5, 2, 3, 3, 3, 4, 7, 5, 7, 2, 4, 4, 5, 3, 1, 1, 1, 4, 4, 4, 3, 3, 6, 4, 6, 1, 3, 4, 7, 2, 6, 7, 5, 1, 7, 3, 1, 3, 2, 7, 2, 4, 5, 6, 7, 6, 3, 1, 7, 1, 6, 6, 6, 3, 3, 1, 1, 2, 6, 5, 2, 3, 3, 6, 4, 7, 1, 7, 1, 6, 1, 1, 6, 3, 2, 3, 7, 1, 7, 6, 5, 6, 6, 1, 5, 2, 4, 3, 5, 2, 5];
facility = [
  { 3, 7 },
  { 2, 3, 4, 5, 7 },
  { 2, 3, 4, 6, 7 },
  { 3, 4, 5, 6, 7 },
  { 1, 4 },
  { 3, 4, 6 },
  { 2, 3 },
  { 5, 7 },
  { 1, 2, 4, 7 },
  { 2, 3, 5, 6 },
  { 2, 7 },
  { 1, 3, 5, 6, 7 },
  { 2, 3, 4, 5, 6 },
  { 3, 4, 5, 6 },
  { 1, 2, 3, 4, 5, 6 },
  { 1, 2, 5, 6, 7 },
  { 5 },
  { 1, 3, 5, 6, 7 },
  { 2, 4, 6, 7 },
  { 4, 5 },
  { 4, 6 },
  { 1, 4, 5, 6 },
  { 3, 6 },
  { 1, 2 },
  { 1, 2, 5, 6, 7 },
  { 1, 2, 3, 4, 7 },
  { 1, 2, 4, 5, 6 },
  { 3, 4, 6 },
  { 2, 3, 4, 7 },
  { 1, 3, 4, 5, 6, 7 },
  { 2, 3, 4, 6 },
  { 1, 6, 7 },
  { 1, 4 },
  { 3, 5, 6 },
  { 1, 4, 5 },
  { 1, 3, 5 },
  { 1, 4, 5, 7 },
  { 5, 6, 7 },
  { 2, 3, 6, 7 },
  { 1, 2, 6 },
  { 2, 3, 4, 5, 7 },
  { 5, 7 },
  { 1, 3, 4, 6 },
  { 4, 6, 7 },
  { 1, 2, 3, 5, 6 },
  { 1, 2, 3, 4, 5, 6 },
  { 1, 2, 3, 5, 6 },
  { 1, 2 },
  { 4, 7 },
  { 1, 2, 6 },
  { 3, 4 },
  { 4, 5 },
  { 4, 6 },
  { 1, 7 },
  { 1, 3, 6, 7 },
  { 1, 2, 3, 5, 6 },
  { 1, 3, 5, 7 },
  { 1, 2, 3, 7 },
  { 1 },
  { 3, 4, 6 },
  { 1, 6 },
  { 2, 4, 6, 7 },
  { 2, 3, 5, 6 },
  { 2, 3, 5 },
  { 1, 4, 5, 6, 7 },
  { 1, 3, 4, 6, 7 },
  { 2, 4, 5, 6, 7 },
  { 1, 3, 6 },
  { 5 },
  { 2, 4, 7 },
  { 2, 3 },
  { 1, 3, 4, 5, 7 },
  { 4, 5, 6 },
  { 1, 3, 4, 5, 6, 7 },
  { 4, 7 },
  { 1, 3, 4, 5, 6 },
  { 5, 7 },
  { 1, 3, 4, 6 },
  { 3, 4, 6 },
  { 1, 7 },
  { 1, 5, 6 },
  { 3, 4, 5, 6, 7 },
  { 1, 3, 7 },
  { 1, 2 },
  { 1, 2, 3, 4, 5, 6 },
  { 2, 5, 7 },
  { 1, 3, 7 },
  { 3, 5, 6, 7 },
  { 1, 2, 3, 6, 7 },
  { 2, 5, 6 },
  { 1, 2, 4, 5, 6, 7 },
  { 2, 3, 4, 5, 6, 7 },
  { 1, 2, 3, 4, 7 },
  { 5, 6, 7 },
  { 1, 2 },
  { 2, 4, 5, 6 },
  { 3, 5 },
  { 3, 4, 5, 6, 7 },
  { 1, 2, 6 },
  { 2, 5, 6 }
];
producedDay = [3, 25, 25, 25, 25, 25, 25, 25, 25, 3, 25, 25, 24, 25, 25, 25, 12, 25, 13, 25, 25, 25, 2, 25, 25, 25, 2, 25, 25, 25, 25, 13, 25, 25, 25, 4, 25, 25, 25, 25, 25, 25, 25, 25, 25, 25, 25, 25, 9, 25, 25, 25, 25, 25, 25, 25, 25, 12, 25, 19, 25, 25, 25, 25, 25, 25, 25, 25, 25, 25, 25, 25, 5, 25, 25, 14, 25, 25, 25, 25, 25, 25, 25, 25, 25, 25, 25, 1, 25, 20, 22, 25, 25, 25, 25, 25, 25, 25, 25, 25];
deadLineDay = [32, 48, 32, 28, 46, 42, 27, 50, 26, 28, 33, 41, 48, 26, 50, 50, 50, 50, 38, 50, 50, 40, 37, 50, 50, 46, 25, 40, 41, 48, 50, 50, 30, 50, 50, 9, 46, 37, 50, 50, 32, 38, 50, 50, 28, 26, 50, 41, 50, 50, 50, 41, 50, 50, 47, 50, 50, 48, 27, 50, 50, 47, 34, 43, 32, 43, 50, 33, 50, 50, 50, 50, 35, 43, 50, 18, 50, 43, 43, 42, 30, 50, 50, 50, 37, 50, 50, 10, 50, 50, 50, 49, 50, 26, 50, 50, 50, 50, 36, 50];
